20 10
25 50 83 12 44 78 81 58 87 85
42 52 65 14 29 65 61 46 87 84
29 40 73 17 22 87 64 54 84 94
36 44 73 10 38 71 51 30 84 85
32 56 55 19 17 83 66 52 91 87
59 66 63 16 45 73 58 45 93 85
36 52 67 9 21 86 61 24 94 90
33 73 63 14 31 83 63 52 89 77
28 55 73 32 22 79 80 32 86 81
46 37 66 19 21 74 56 60 92 86
41 59 63 9 18 86 73 33 85 82
41 44 66 12 23 75 75 42 85 70
57 31 66 11 18 74 74 45 88 90
39 60 76 20 17 70 69 49 87 91
38 47 64 13 31 69 45 33 94 86
25 50 73 13 35 73 74 63 82 76
23 48 67 13 42 74 78 40 92 89
33 47 75 16 41 75 43 24 93 78
24 48 72 29 39 60 55 35 91 82
50 48 64 13 16 75 79 45 86 84
